nK = 1758;
nT = 6;
nI = 14;
L = 35;
TT = 399;
np = 1;
nc = 3;
b = [29, 22, 48, 24, 29, 64, 25, 41, 55, 43, 45, 27, 45, 22];
d = [101, 123, 121, 94, 150, 126, 78, 110, 94, 116, 94, 68, 121, 62];
m = [2.3, 1.6, 1.3, 1.6, 1, 1.1, 1.5, 2.5, 2.2, 2.5, 1.8, 1.8, 2.4, 1.9];
pt = [0.3, 0.26, 0.29, 0.22, 0.33, 0.26];
st = [14.7, 11.44, 12.76, 12.32, 15.84, 12.74];
arc = {<1, 0, 1, 1, 0, 0, 0, [1, 1, 1, 1, 1, 1]>, <2, 1, 2, 1, 0, 0, 0, [1, 1, 1, 1, 1, 1]>, <3, 2, 3, 1, 0, 0, 0, [1, 1, 1, 1, 1, 1]>, <4, 3, 4, 1, 0, 0, 0, [1, 1, 1, 1, 1, 1]>, <5, 4, 5, 1, 0, 0, 0, [1, 1, 1, 1, 1, 1]>, <6, 5, 6, 1, 0, 0, 0, [1, 1, 1, 1, 1, 1]>, <7, 6, 7, 1, 0, 0, 0, [1, 1, 1, 1, 1, 1]>, <8, 7, 8, 1, 0, 0, 0, [1, 1, 1, 1, 1, 1]>, <9, 8, 9, 1, 0, 0, 0, [1, 1, 1, 1, 1, 1]>, <10, 9, 10, 1, 0, 0, 0, [1, 1, 1, 1, 1, 1]>, <11, 10, 11, 1, 0, 0, 0, [1, 1, 1, 1, 1, 1]>, <12, 11, 12, 1, 0, 0, 0, [1, 1, 1, 1, 1, 1]>, <13, 12, 13, 1, 0, 0, 0, [1, 1, 1, 1, 1, 1]>, <14, 13, 14, 1, 0, 0, 0, [1, 1, 1, 1, 1, 1]>, <15, 14, 15, 1, 0, 0, 0, [1, 1, 1, 1, 1, 1]>, <16, 15, 16, 1, 0, 0, 0, [1, 1, 1, 1, 1, 1]>, <17, 16, 17, 1, 0, 0, 0, [1, 1, 1, 1, 1, 1]>, <18, 17, 18, 1, 0, 0, 0, [1, 1, 1, 1, 1, 1]>, <19, 18, 19, 1, 0, 0, 0, [1, 1, 1, 1, 1, 1]>, <20, 19, 20, 1, 0, 0, 0, [1, 1, 1, 1, 1, 1]>, <21, 20, 21, 1, 0, 0, 0, [1, 1, 1, 1, 1, 1]>, <22, 21, 22, 1, 0, 0, 0, [1, 1, 1, 1, 1, 1]>, <23, 22, 23, 1, 0, 0, 0, [1, 1, 1, 1, 1, 1]>, <24, 23, 24, 1, 0, 0, 0, [1, 1, 1, 1, 1, 1]>, <25, 24, 25, 1, 0, 0, 0, [1, 1, 1, 1, 1, 1]>, <26, 25, 26, 1, 0, 0, 0, [1, 1, 1, 1, 1, 1]>, <27, 26, 27, 1, 0, 0, 0, [1, 1, 1, 1, 1, 1]>, <28, 27, 28, 1, 0, 0, 0, [1, 1, 1, 1, 1, 1]>, <29, 28, 29, 1, 0, 0, 0, [1, 1, 1, 1, 1, 1]>, <30, 29, 30, 1, 0, 0, 0, [1, 1, 1, 1, 1, 1]>, <31, 30, 31, 1, 0, 0, 0, [1, 1, 1, 1, 1, 1]>, <32, 31, 32, 1, 0, 0, 0, [1, 1, 1, 1, 1, 1]>, <33, 32, 33, 1, 0, 0, 0, [1, 1, 1, 1, 1, 1]>, <34, 33, 34, 1, 0, 0, 0, [1, 1, 1, 1, 1, 1]>, <35, 34, 35, 1, 0, 0, 0, [1, 1, 1, 1, 1, 1]>, <36, 4, 17, 13, 1, 0, 0, [1, 1, 0, 0, 0, 0]>, <37, 5, 18, 13, 1, 0, 0, [1, 1, 0, 0, 0, 0]>, <38, 6, 19, 13, 1, 0, 0, [1, 1, 0, 0, 0, 0]>, <39, 13, 26, 13, 1, 0, 0, [1, 1, 0, 0, 0, 0]>, <40, 14, 27, 13, 1, 0, 0, [1, 1, 0, 0, 0, 0]>, <41, 15, 28, 13, 1, 0, 0, [1, 1, 0, 0, 0, 0]>, <42, 18, 31, 13, 1, 0, 0, [1, 1, 0, 0, 0, 0]>, <43, 19, 32, 13, 1, 0, 0, [1, 1, 0, 0, 0, 0]>, <44, 20, 33, 13, 1, 0, 0, [1, 1, 0, 0, 0, 0]>, <45, 21, 34, 13, 1, 0, 0, [1, 1, 0, 0, 0, 0]>, <46, 22, 35, 13, 1, 0, 0, [1, 1, 0, 0, 0, 0]>, <47, 1, 17, 16, 2, 0, 0, [0, 1, 1, 0, 0, 0]>, <48, 2, 18, 16, 2, 0, 0, [0, 1, 1, 0, 0, 0]>, <49, 3, 19, 16, 2, 0, 0, [0, 1, 1, 0, 0, 0]>, <50, 4, 20, 16, 2, 0, 0, [0, 1, 1, 0, 0, 0]>, <51, 5, 21, 16, 2, 0, 0, [0, 1, 1, 0, 0, 0]>, <52, 6, 22, 16, 2, 0, 0, [0, 1, 1, 0, 0, 0]>, <53, 10, 26, 16, 2, 0, 0, [0, 1, 1, 0, 0, 0]>, <54, 11, 27, 16, 2, 0, 0, [0, 1, 1, 0, 0, 0]>, <55, 12, 28, 16, 2, 0, 0, [0, 1, 1, 0, 0, 0]>, <56, 13, 29, 16, 2, 0, 0, [0, 1, 1, 0, 0, 0]>, <57, 14, 30, 16, 2, 0, 0, [0, 1, 1, 0, 0, 0]>, <58, 15, 31, 16, 2, 0, 0, [0, 1, 1, 0, 0, 0]>, <59, 16, 32, 16, 2, 0, 0, [0, 1, 1, 0, 0, 0]>, <60, 17, 33, 16, 2, 0, 0, [0, 1, 1, 0, 0, 0]>, <61, 18, 34, 16, 2, 0, 0, [0, 1, 1, 0, 0, 0]>, <62, 19, 35, 16, 2, 0, 0, [0, 1, 1, 0, 0, 0]>, <63, 0, 17, 17, 3, 0, 1, [1, 1, 0, 0, 0, 0]>, <64, 1, 18, 17, 3, 0, 1, [1, 1, 0, 0, 0, 0]>, <65, 2, 19, 17, 3, 0, 1, [1, 1, 0, 0, 0, 0]>, <66, 3, 20, 17, 3, 0, 1, [1, 1, 0, 0, 0, 0]>, <67, 4, 21, 17, 3, 0, 1, [1, 1, 0, 0, 0, 0]>, <68, 5, 22, 17, 3, 0, 1, [1, 1, 0, 0, 0, 0]>, <69, 6, 23, 17, 3, 0, 1, [1, 1, 0, 0, 0, 0]>, <70, 9, 26, 17, 3, 0, 1, [1, 1, 0, 0, 0, 0]>, <71, 10, 27, 17, 3, 0, 1, [1, 1, 0, 0, 0, 0]>, <72, 11, 28, 17, 3, 0, 1, [1, 1, 0, 0, 0, 0]>, <73, 12, 29, 17, 3, 0, 1, [1, 1, 0, 0, 0, 0]>, <74, 13, 30, 17, 3, 0, 1, [1, 1, 0, 0, 0, 0]>, <75, 14, 31, 17, 3, 0, 1, [1, 1, 0, 0, 0, 0]>, <76, 15, 32, 17, 3, 0, 1, [1, 1, 0, 0, 0, 0]>, <77, 16, 33, 17, 3, 0, 1, [1, 1, 0, 0, 0, 0]>, <78, 17, 34, 17, 3, 0, 1, [1, 1, 0, 0, 0, 0]>, <79, 18, 35, 17, 3, 0, 1, [1, 1, 0, 0, 0, 0]>, <80, 4, 17, 13, 4, 0, 0, [0, 1, 1, 0, 0, 0]>, <81, 5, 18, 13, 4, 0, 0, [0, 1, 1, 0, 0, 0]>, <82, 6, 19, 13, 4, 0, 0, [0, 1, 1, 0, 0, 0]>, <83, 13, 26, 13, 4, 0, 0, [0, 1, 1, 0, 0, 0]>, <84, 14, 27, 13, 4, 0, 0, [0, 1, 1, 0, 0, 0]>, <85, 15, 28, 13, 4, 0, 0, [0, 1, 1, 0, 0, 0]>, <86, 18, 31, 13, 4, 0, 0, [0, 1, 1, 0, 0, 0]>, <87, 19, 32, 13, 4, 0, 0, [0, 1, 1, 0, 0, 0]>, <88, 20, 33, 13, 4, 0, 0, [0, 1, 1, 0, 0, 0]>, <89, 21, 34, 13, 4, 0, 0, [0, 1, 1, 0, 0, 0]>, <90, 22, 35, 13, 4, 0, 0, [0, 1, 1, 0, 0, 0]>, <91, 3, 17, 14, 5, 0, 1, [0, 0, 0, 0, 1, 1]>, <92, 4, 18, 14, 5, 0, 1, [0, 0, 0, 0, 1, 1]>, <93, 5, 19, 14, 5, 0, 1, [0, 0, 0, 0, 1, 1]>, <94, 6, 20, 14, 5, 0, 1, [0, 0, 0, 0, 1, 1]>, <95, 12, 26, 14, 5, 0, 1, [0, 0, 0, 0, 1, 1]>, <96, 13, 27, 14, 5, 0, 1, [0, 0, 0, 0, 1, 1]>, <97, 14, 28, 14, 5, 0, 1, [0, 0, 0, 0, 1, 1]>, <98, 15, 29, 14, 5, 0, 1, [0, 0, 0, 0, 1, 1]>, <99, 17, 31, 14, 5, 0, 1, [0, 0, 0, 0, 1, 1]>, <100, 18, 32, 14, 5, 0, 1, [0, 0, 0, 0, 1, 1]>, <101, 19, 33, 14, 5, 0, 1, [0, 0, 0, 0, 1, 1]>, <102, 20, 34, 14, 5, 0, 1, [0, 0, 0, 0, 1, 1]>, <103, 21, 35, 14, 5, 0, 1, [0, 0, 0, 0, 1, 1]>, <104, 2, 17, 15, 6, 0, 0, [0, 1, 1, 0, 0, 0]>, <105, 3, 18, 15, 6, 0, 0, [0, 1, 1, 0, 0, 0]>, <106, 4, 19, 15, 6, 0, 0, [0, 1, 1, 0, 0, 0]>, <107, 5, 20, 15, 6, 0, 0, [0, 1, 1, 0, 0, 0]>, <108, 6, 21, 15, 6, 0, 0, [0, 1, 1, 0, 0, 0]>, <109, 11, 26, 15, 6, 0, 0, [0, 1, 1, 0, 0, 0]>, <110, 12, 27, 15, 6, 0, 0, [0, 1, 1, 0, 0, 0]>, <111, 13, 28, 15, 6, 0, 0, [0, 1, 1, 0, 0, 0]>, <112, 14, 29, 15, 6, 0, 0, [0, 1, 1, 0, 0, 0]>, <113, 15, 30, 15, 6, 0, 0, [0, 1, 1, 0, 0, 0]>, <114, 16, 31, 15, 6, 0, 0, [0, 1, 1, 0, 0, 0]>, <115, 17, 32, 15, 6, 0, 0, [0, 1, 1, 0, 0, 0]>, <116, 18, 33, 15, 6, 0, 0, [0, 1, 1, 0, 0, 0]>, <117, 19, 34, 15, 6, 0, 0, [0, 1, 1, 0, 0, 0]>, <118, 20, 35, 15, 6, 0, 0, [0, 1, 1, 0, 0, 0]>, <119, 0, 18, 18, 7, 0, 1, [0, 0, 0, 1, 1, 0]>, <120, 1, 19, 18, 7, 0, 1, [0, 0, 0, 1, 1, 0]>, <121, 2, 20, 18, 7, 0, 1, [0, 0, 0, 1, 1, 0]>, <122, 3, 21, 18, 7, 0, 1, [0, 0, 0, 1, 1, 0]>, <123, 4, 22, 18, 7, 0, 1, [0, 0, 0, 1, 1, 0]>, <124, 5, 23, 18, 7, 0, 1, [0, 0, 0, 1, 1, 0]>, <125, 6, 24, 18, 7, 0, 1, [0, 0, 0, 1, 1, 0]>, <126, 8, 26, 18, 7, 0, 1, [0, 0, 0, 1, 1, 0]>, <127, 9, 27, 18, 7, 0, 1, [0, 0, 0, 1, 1, 0]>, <128, 10, 28, 18, 7, 0, 1, [0, 0, 0, 1, 1, 0]>, <129, 11, 29, 18, 7, 0, 1, [0, 0, 0, 1, 1, 0]>, <130, 12, 30, 18, 7, 0, 1, [0, 0, 0, 1, 1, 0]>, <131, 13, 31, 18, 7, 0, 1, [0, 0, 0, 1, 1, 0]>, <132, 14, 32, 18, 7, 0, 1, [0, 0, 0, 1, 1, 0]>, <133, 15, 33, 18, 7, 0, 1, [0, 0, 0, 1, 1, 0]>, <134, 16, 34, 18, 7, 0, 1, [0, 0, 0, 1, 1, 0]>, <135, 17, 35, 18, 7, 0, 1, [0, 0, 0, 1, 1, 0]>, <136, 0, 18, 18, 8, 0, 1, [0, 0, 0, 1, 1, 0]>, <137, 1, 19, 18, 8, 0, 1, [0, 0, 0, 1, 1, 0]>, <138, 2, 20, 18, 8, 0, 1, [0, 0, 0, 1, 1, 0]>, <139, 3, 21, 18, 8, 0, 1, [0, 0, 0, 1, 1, 0]>, <140, 4, 22, 18, 8, 0, 1, [0, 0, 0, 1, 1, 0]>, <141, 5, 23, 18, 8, 0, 1, [0, 0, 0, 1, 1, 0]>, <142, 6, 24, 18, 8, 0, 1, [0, 0, 0, 1, 1, 0]>, <143, 8, 26, 18, 8, 0, 1, [0, 0, 0, 1, 1, 0]>, <144, 9, 27, 18, 8, 0, 1, [0, 0, 0, 1, 1, 0]>, <145, 10, 28, 18, 8, 0, 1, [0, 0, 0, 1, 1, 0]>, <146, 11, 29, 18, 8, 0, 1, [0, 0, 0, 1, 1, 0]>, <147, 12, 30, 18, 8, 0, 1, [0, 0, 0, 1, 1, 0]>, <148, 13, 31, 18, 8, 0, 1, [0, 0, 0, 1, 1, 0]>, <149, 14, 32, 18, 8, 0, 1, [0, 0, 0, 1, 1, 0]>, <150, 15, 33, 18, 8, 0, 1, [0, 0, 0, 1, 1, 0]>, <151, 16, 34, 18, 8, 0, 1, [0, 0, 0, 1, 1, 0]>, <152, 17, 35, 18, 8, 0, 1, [0, 0, 0, 1, 1, 0]>, <153, 0, 18, 18, 9, 1, 0, [0, 0, 1, 1, 0, 0]>, <154, 1, 19, 18, 9, 1, 0, [0, 0, 1, 1, 0, 0]>, <155, 2, 20, 18, 9, 1, 0, [0, 0, 1, 1, 0, 0]>, <156, 3, 21, 18, 9, 1, 0, [0, 0, 1, 1, 0, 0]>, <157, 4, 22, 18, 9, 1, 0, [0, 0, 1, 1, 0, 0]>, <158, 5, 23, 18, 9, 1, 0, [0, 0, 1, 1, 0, 0]>, <159, 6, 24, 18, 9, 1, 0, [0, 0, 1, 1, 0, 0]>, <160, 8, 26, 18, 9, 1, 0, [0, 0, 1, 1, 0, 0]>, <161, 9, 27, 18, 9, 1, 0, [0, 0, 1, 1, 0, 0]>, <162, 10, 28, 18, 9, 1, 0, [0, 0, 1, 1, 0, 0]>, <163, 11, 29, 18, 9, 1, 0, [0, 0, 1, 1, 0, 0]>, <164, 12, 30, 18, 9, 1, 0, [0, 0, 1, 1, 0, 0]>, <165, 13, 31, 18, 9, 1, 0, [0, 0, 1, 1, 0, 0]>, <166, 14, 32, 18, 9, 1, 0, [0, 0, 1, 1, 0, 0]>, <167, 15, 33, 18, 9, 1, 0, [0, 0, 1, 1, 0, 0]>, <168, 16, 34, 18, 9, 1, 0, [0, 0, 1, 1, 0, 0]>, <169, 17, 35, 18, 9, 1, 0, [0, 0, 1, 1, 0, 0]>, <170, 4, 17, 13, 10, 1, 0, [0, 1, 1, 0, 0, 0]>, <171, 5, 18, 13, 10, 1, 0, [0, 1, 1, 0, 0, 0]>, <172, 6, 19, 13, 10, 1, 0, [0, 1, 1, 0, 0, 0]>, <173, 13, 26, 13, 10, 1, 0, [0, 1, 1, 0, 0, 0]>, <174, 14, 27, 13, 10, 1, 0, [0, 1, 1, 0, 0, 0]>, <175, 15, 28, 13, 10, 1, 0, [0, 1, 1, 0, 0, 0]>, <176, 18, 31, 13, 10, 1, 0, [0, 1, 1, 0, 0, 0]>, <177, 19, 32, 13, 10, 1, 0, [0, 1, 1, 0, 0, 0]>, <178, 20, 33, 13, 10, 1, 0, [0, 1, 1, 0, 0, 0]>, <179, 21, 34, 13, 10, 1, 0, [0, 1, 1, 0, 0, 0]>, <180, 22, 35, 13, 10, 1, 0, [0, 1, 1, 0, 0, 0]>, <181, 4, 17, 13, 11, 0, 0, [0, 1, 1, 0, 0, 0]>, <182, 5, 18, 13, 11, 0, 0, [0, 1, 1, 0, 0, 0]>, <183, 6, 19, 13, 11, 0, 0, [0, 1, 1, 0, 0, 0]>, <184, 13, 26, 13, 11, 0, 0, [0, 1, 1, 0, 0, 0]>, <185, 14, 27, 13, 11, 0, 0, [0, 1, 1, 0, 0, 0]>, <186, 15, 28, 13, 11, 0, 0, [0, 1, 1, 0, 0, 0]>, <187, 18, 31, 13, 11, 0, 0, [0, 1, 1, 0, 0, 0]>, <188, 19, 32, 13, 11, 0, 0, [0, 1, 1, 0, 0, 0]>, <189, 20, 33, 13, 11, 0, 0, [0, 1, 1, 0, 0, 0]>, <190, 21, 34, 13, 11, 0, 0, [0, 1, 1, 0, 0, 0]>, <191, 22, 35, 13, 11, 0, 0, [0, 1, 1, 0, 0, 0]>, <192, 0, 17, 17, 12, 1, 0, [1, 0, 0, 0, 0, 1]>, <193, 1, 18, 17, 12, 1, 0, [1, 0, 0, 0, 0, 1]>, <194, 2, 19, 17, 12, 1, 0, [1, 0, 0, 0, 0, 1]>, <195, 3, 20, 17, 12, 1, 0, [1, 0, 0, 0, 0, 1]>, <196, 4, 21, 17, 12, 1, 0, [1, 0, 0, 0, 0, 1]>, <197, 5, 22, 17, 12, 1, 0, [1, 0, 0, 0, 0, 1]>, <198, 6, 23, 17, 12, 1, 0, [1, 0, 0, 0, 0, 1]>, <199, 9, 26, 17, 12, 1, 0, [1, 0, 0, 0, 0, 1]>, <200, 10, 27, 17, 12, 1, 0, [1, 0, 0, 0, 0, 1]>, <201, 11, 28, 17, 12, 1, 0, [1, 0, 0, 0, 0, 1]>, <202, 12, 29, 17, 12, 1, 0, [1, 0, 0, 0, 0, 1]>, <203, 13, 30, 17, 12, 1, 0, [1, 0, 0, 0, 0, 1]>, <204, 14, 31, 17, 12, 1, 0, [1, 0, 0, 0, 0, 1]>, <205, 15, 32, 17, 12, 1, 0, [1, 0, 0, 0, 0, 1]>, <206, 16, 33, 17, 12, 1, 0, [1, 0, 0, 0, 0, 1]>, <207, 17, 34, 17, 12, 1, 0, [1, 0, 0, 0, 0, 1]>, <208, 18, 35, 17, 12, 1, 0, [1, 0, 0, 0, 0, 1]>, <209, 0, 17, 17, 13, 0, 0, [0, 1, 1, 0, 0, 0]>, <210, 1, 18, 17, 13, 0, 0, [0, 1, 1, 0, 0, 0]>, <211, 2, 19, 17, 13, 0, 0, [0, 1, 1, 0, 0, 0]>, <212, 3, 20, 17, 13, 0, 0, [0, 1, 1, 0, 0, 0]>, <213, 4, 21, 17, 13, 0, 0, [0, 1, 1, 0, 0, 0]>, <214, 5, 22, 17, 13, 0, 0, [0, 1, 1, 0, 0, 0]>, <215, 6, 23, 17, 13, 0, 0, [0, 1, 1, 0, 0, 0]>, <216, 9, 26, 17, 13, 0, 0, [0, 1, 1, 0, 0, 0]>, <217, 10, 27, 17, 13, 0, 0, [0, 1, 1, 0, 0, 0]>, <218, 11, 28, 17, 13, 0, 0, [0, 1, 1, 0, 0, 0]>, <219, 12, 29, 17, 13, 0, 0, [0, 1, 1, 0, 0, 0]>, <220, 13, 30, 17, 13, 0, 0, [0, 1, 1, 0, 0, 0]>, <221, 14, 31, 17, 13, 0, 0, [0, 1, 1, 0, 0, 0]>, <222, 15, 32, 17, 13, 0, 0, [0, 1, 1, 0, 0, 0]>, <223, 16, 33, 17, 13, 0, 0, [0, 1, 1, 0, 0, 0]>, <224, 17, 34, 17, 13, 0, 0, [0, 1, 1, 0, 0, 0]>, <225, 18, 35, 17, 13, 0, 0, [0, 1, 1, 0, 0, 0]>, <226, 4, 17, 13, 14, 0, 0, [1, 0, 0, 0, 0, 1]>, <227, 5, 18, 13, 14, 0, 0, [1, 0, 0, 0, 0, 1]>, <228, 6, 19, 13, 14, 0, 0, [1, 0, 0, 0, 0, 1]>, <229, 13, 26, 13, 14, 0, 0, [1, 0, 0, 0, 0, 1]>, <230, 14, 27, 13, 14, 0, 0, [1, 0, 0, 0, 0, 1]>, <231, 15, 28, 13, 14, 0, 0, [1, 0, 0, 0, 0, 1]>, <232, 18, 31, 13, 14, 0, 0, [1, 0, 0, 0, 0, 1]>, <233, 19, 32, 13, 14, 0, 0, [1, 0, 0, 0, 0, 1]>, <234, 20, 33, 13, 14, 0, 0, [1, 0, 0, 0, 0, 1]>, <235, 21, 34, 13, 14, 0, 0, [1, 0, 0, 0, 0, 1]>, <236, 22, 35, 13, 14, 0, 0, [1, 0, 0, 0, 0, 1]>};
